N = 10;
H = 5;
T = 2;

avail = array3d(1..N, 1..H, 1..T, [2, 6, 3, 7, 1, 10, 3, 1, 8, 3, 9, 0, 7, 1, 0, 2, 10, 0, 9, 3, 4, 9, 9, 8, 9, 3, 0, 7, 4, 10, 3, 1, 4, 10, 1, 4, 4, 5, 9, 4, 8, 8, 7, 6, 5, 2, 3, 1, 1, 7, 1, 1, 5, 6, 2, 2, 6, 3, 10, 4, 7, 1, 0, 4, 7, 8, 8, 2, 10, 0, 4, 4, 3, 1, 0, 7, 8, 5, 3, 6, 3, 9, 0, 1, 9, 1, 5, 4, 1, 2, 0, 5, 9, 0, 1, 2, 3, 3, 8, 5]);

r = array2d(1..H, 1..T, [3, 1, 3, 4, 4, 3, 1, 3, 0, 1]);
